Version identifier: 12.10.0.0 | 2019-11-26 | 843d4de
CPXPARAM_Read_DataCheck                          1
CPXPARAM_RandomSeed                              201903125
CPXPARAM_TimeLimit                               7200
Parallel mode: deterministic, using up to 8 threads for concurrent optimization:
 * Starting dual Simplex on 1 thread...
 * Starting Barrier on 6 threads...
 * Starting primal Simplex on 1 thread...
Tried aggregator 1 time.
No LP presolve or aggregator reductions.
Presolve time = 0.01 sec. (5.86 ticks)

Iteration log . . .
Iteration:     1   Dual objective     =          1164.000000
Perturbation started.
Iteration:   101   Dual objective     =          1164.000000
Iteration:   238   Dual objective     =          1164.026437
Iteration:   390   Dual objective     =          1164.063607
Iteration:   614   Dual objective     =          1164.063611
Iteration:   843   Dual objective     =          1164.063615
Iteration:  1069   Dual objective     =          1164.063618
Iteration:  1304   Dual objective     =          1164.063620
Iteration:  1534   Dual objective     =          1164.063622
Iteration:  1771   Dual objective     =          1164.063624
Iteration:  1999   Dual objective     =          1164.063625
Iteration:  2231   Dual objective     =          1164.063625
Removing perturbation.

Dual simplex solved model.

